100
128
2
39
17
19
1
54
7
33
54
4
15
17
2
5
34
42
3
11
24
25
4
17
1
1
5
16
7
34
32
2
2
53
60
3
4
17
26
15
25
1
64
22
33
2
7
36
46
4
41
10
24
42
50
3
22
3
3
6
4
39
59
56
2
44
61
41
23
33
1
1
50
3
8
31
28
1
33
31
55
15
4
40
56
13
18
5
46
63
40
3
12
47
51
42
62
2
34
4
40
64